828.26 0
0 52 7 82 48 19 11 64 49 36 47 46 8 83 18 0
0 89 60 5 84 45 17 61 85 93 59 99 96 6 0
0 50 33 81 9 51 32 90 63 10 62 88 31 27 0
0 76 77 3 79 78 34 35 71 65 66 20 30 70 1 69 0
0 13 87 97 95 94 0
0 28 12 80 68 29 24 54 55 25 4 26 53 0
0 40 73 74 22 41 23 67 39 56 75 72 21 0
0 92 98 37 100 91 16 86 38 44 14 42 43 15 57 2 58 0